\ENCODING=ISO-8859-1
\Problem name: IloCplex

Maximize
 obj1: z
Subject To
 c1: q_0 + q_8 <= 5.46854995797507
 c2: q_5 + q_9 <= 4.54421409864357
 c3: q_8 + q_7 <= 3.8395364213951
 c4: q_7 + q_4 <= 4.55803213057316
Bounds
 0 <= q_0 <= 2
 0 <= q_8 <= 2
 0 <= q_5 <= 1
 0 <= q_9 <= 3
 0 <= q_7 <= 1
      q_4 = 0
      z Free
End
